NAME:16038
COMMENT: From "On the generation of Metric TSP instances with a large integrality gap by branch-and-cut" (Vercesi, Gualandi, Mastrolilli, Gambardella) - https://arxiv.org/abs/2109.02454
TYPE: TSP
DIMENSION: 16
EDGE_WEIGHT_TYPE: EXPLICIT
EDGE_WEIGHT_FORMAT: UPPER_ROW
EDGE_WEIGHT_SECTION
203 203 290 63 29 98 58 168 87 117 133 174 238 145 116 174 87 210 174 175 145 139 116 88 140 203 209 174 145 157 140 174 105 145 35 116 262 70 99 35 70 87 297 261 262 232 192 203 175 227 116 122 145 174 92 35 121 105 150 122 70 237 175 208 179 69 29 139 58 146 104 145 209 116 87 98 70 117 157 35 204 140 175 146 110 29 175 75 116 180 87 58 81 227 35 134 70 105 76 204 82 87 151 58 29 192 291 297 262 233 169 105 140 111 64 29 58 93 122 29 
EOF